results_rootrelaxation/bin012_060_016.srr.sol
solution status: optimal solution found
objective value:                                  3.1
_var693_                                        0.125 	(obj:0)
_var695_                                         0.35 	(obj:0)
_var710_                            0.599999999999999 	(obj:0)
_var716_                            0.325000000000001 	(obj:0)
_var737_                                         0.25 	(obj:0)
_var763_                            0.325000000000001 	(obj:0)
_var764_                            0.174999999999999 	(obj:0)
_var767_                            0.225000000000001 	(obj:0)
_var769_                           0.0749999999999995 	(obj:1)
_var774_                           0.0749999999999995 	(obj:0)
_var775_                           0.0500000000000017 	(obj:0)
_var776_                            0.124999999999999 	(obj:0)
_var781_                            0.350000000000001 	(obj:0)
_var786_                            0.449999999999999 	(obj:0)
_var790_                                        0.225 	(obj:0)
_var794_                                        0.025 	(obj:0)
_var798_                            0.175000000000001 	(obj:0)
_var805_                            0.275000000000002 	(obj:1)
_var806_                           0.0249999999999998 	(obj:0)
_var808_                                        0.275 	(obj:0)
_var812_                                        0.525 	(obj:1)
_var814_                           0.0249999999999993 	(obj:0)
_var815_                                          0.4 	(obj:0)
_var818_                            0.324999999999999 	(obj:1)
_var821_                            0.599999999999998 	(obj:0)
_var824_                            0.150000000000001 	(obj:1)
_var827_                            0.075000000000001 	(obj:1)
_var828_                            0.349999999999999 	(obj:0)
_var832_                                        0.125 	(obj:0)
_var833_                                          0.4 	(obj:0)
_var834_                            0.125000000000001 	(obj:1)
_var838_                            0.074999999999999 	(obj:0)
_var843_                            0.275000000000002 	(obj:0)
_var846_                            0.274999999999999 	(obj:1)
_var847_                            0.125000000000001 	(obj:0)
_var849_                                        0.125 	(obj:1)
_var851_                            0.200000000000001 	(obj:0)
_var853_                                          0.1 	(obj:1)
_var854_                            0.124999999999999 	(obj:1)
_var855_                            0.374999999999999 	(obj:1)
_var856_                           0.0999999999999994 	(obj:0)
_var861_                           0.0500000000000007 	(obj:0)
_var862_                            0.224999999999999 	(obj:0)
_var864_                           0.0250000000000024 	(obj:1)
_var865_                            0.149999999999999 	(obj:1)
_var866_                           0.0250000000000006 	(obj:0)
_var867_                            0.400000000000001 	(obj:0)
_var871_                                        0.025 	(obj:0)
_var872_                            0.049999999999999 	(obj:1)
_var873_                           0.0499999999999982 	(obj:0)
_var874_                            0.200000000000001 	(obj:0)
_var879_                           0.0249999999999995 	(obj:1)
_var880_                           0.0750000000000002 	(obj:1)
_var881_                            0.100000000000001 	(obj:0)
_var884_                           0.0249999999999999 	(obj:1)
_var887_                           0.0499999999999999 	(obj:1)
_var889_                            0.099999999999999 	(obj:1)
_var890_                           0.0500000000000014 	(obj:1)
