results_rootrelaxation/bin012_060_016.srr.log
SCIP version 8.0.3.5 [precision: 8 byte] [memory: block] [mode: optimized] [LP solver: Soplex 6.0.1.3] [GitHash: 438792519e]
Copyright (c) 2002-2023 Zuse Institute Berlin (ZIB)

External libraries: 
  Readline 8.1         GNU library for command line editing (gnu.org/s/readline)
  Soplex 6.0.1.3       Linear Programming Solver developed at Zuse Institute Berlin (soplex.zib.de) [GitHash: 713be0fe]
  CppAD 20180000.0     Algorithmic Differentiation of C++ algorithms developed by B. Bell (github.com/coin-or/CppAD)
  ZLIB 1.2.11          General purpose compression library by J. Gailly and M. Adler (zlib.net)
  bliss 0.77           Computing Graph Automorphism Groups by T. Junttila and P. Kaski (www.tcs.hut.fi/Software/bliss/)

user parameter file <scip.set> not found - using default parameters

srr/relaxation = TRUE

read problem <instances/bin012_060_016.srr>
============

Original problem: 
original problem has 0 variables (0 bin, 0 int, 0 impl, 0 cont) and 77 constraints

presolving:
presolving (1 rounds: 1 fast, 1 medium, 1 exhaustive):
 0 deleted vars, 0 deleted constraints, 0 added constraints, 0 tightened bounds, 0 added holes, 0 changed sides, 0 changed coefficients
 0 implications, 0 cliques
presolved problem has 0 variables (0 bin, 0 int, 0 impl, 0 cont) and 77 constraints
     77 constraints of type <linear>
Presolving Time: 0.00

 time | node  | left  |LP iter|LP it/n|mem/heur|mdpt |vars |cons |rows |cuts |sepa|confs|strbr|  dualbound   | primalbound  |  gap   | compl. 
  0.0s|     1 |     0 |     1 |     - |   710k |   0 |   1 |  77 |  77 |   0 |  0 |   0 |   0 |      --      |      --      |    Inf | unknown
r 0.1s|     1 |     0 |  1047 |     - |simplero|   0 | 650 |  77 |  77 |   0 |  0 |   0 |   0 |      --      | 2.062046e+01 |    Inf | unknown
r 0.1s|     1 |     0 |  1078 |     - |simplero|   0 | 661 |  77 |  77 |   0 |  0 |   0 |   0 |      --      | 1.977818e+01 |    Inf | unknown
r 0.1s|     1 |     0 |  1120 |     - |simplero|   0 | 672 |  77 |  77 |   0 |  0 |   0 |   0 |      --      | 1.817253e+01 |    Inf | unknown
r 0.1s|     1 |     0 |  1184 |     - |simplero|   0 | 683 |  77 |  77 |   0 |  0 |   0 |   0 |      --      | 1.535137e+01 |    Inf | unknown
r 0.1s|     1 |     0 |  1223 |     - |simplero|   0 | 694 |  77 |  77 |   0 |  0 |   0 |   0 |      --      | 1.420026e+01 |    Inf | unknown
r 0.1s|     1 |     0 |  1246 |     - |simplero|   0 | 694 |  77 |  77 |   0 |  0 |   0 |   0 |      --      | 1.390957e+01 |    Inf | unknown
r 0.1s|     1 |     0 |  1257 |     - |simplero|   0 | 694 |  77 |  77 |   0 |  0 |   0 |   0 |      --      | 1.389921e+01 |    Inf | unknown
r 0.1s|     1 |     0 |  1302 |     - |simplero|   0 | 705 |  77 |  77 |   0 |  0 |   0 |   0 |      --      | 1.271920e+01 |    Inf | unknown
r 0.1s|     1 |     0 |  1309 |     - |simplero|   0 | 705 |  77 |  77 |   0 |  0 |   0 |   0 |      --      | 1.267176e+01 |    Inf | unknown
r 0.1s|     1 |     0 |  1350 |     - |simplero|   0 | 716 |  77 |  77 |   0 |  0 |   0 |   0 |      --      | 1.130931e+01 |    Inf | unknown
r 0.1s|     1 |     0 |  1396 |     - |simplero|   0 | 727 |  77 |  77 |   0 |  0 |   0 |   0 |      --      | 9.834733e+00 |    Inf | unknown
r 0.1s|     1 |     0 |  1412 |     - |simplero|   0 | 727 |  77 |  77 |   0 |  0 |   0 |   0 |      --      | 9.459989e+00 |    Inf | unknown
r 0.1s|     1 |     0 |  1416 |     - |simplero|   0 | 727 |  77 |  77 |   0 |  0 |   0 |   0 |      --      | 9.453879e+00 |    Inf | unknown
r 0.1s|     1 |     0 |  1456 |     - |simplero|   0 | 738 |  77 |  77 |   0 |  0 |   0 |   0 |      --      | 8.582814e+00 |    Inf | unknown
 time | node  | left  |LP iter|LP it/n|mem/heur|mdpt |vars |cons |rows |cuts |sepa|confs|strbr|  dualbound   | primalbound  |  gap   | compl. 
r 0.1s|     1 |     0 |  1470 |     - |simplero|   0 | 738 |  77 |  77 |   0 |  0 |   0 |   0 |      --      | 8.505616e+00 |    Inf | unknown
r 0.1s|     1 |     0 |  1473 |     - |simplero|   0 | 738 |  77 |  77 |   0 |  0 |   0 |   0 |      --      | 8.500604e+00 |    Inf | unknown
r 0.1s|     1 |     0 |  1492 |     - |simplero|   0 | 749 |  77 |  77 |   0 |  0 |   0 |   0 |      --      | 7.684346e+00 |    Inf | unknown
r 0.1s|     1 |     0 |  1518 |     - |simplero|   0 | 749 |  77 |  77 |   0 |  0 |   0 |   0 |      --      | 7.433250e+00 |    Inf | unknown
r 0.1s|     1 |     0 |  1526 |     - |simplero|   0 | 749 |  77 |  77 |   0 |  0 |   0 |   0 |      --      | 7.373246e+00 |    Inf | unknown
r 0.1s|     1 |     0 |  1528 |     - |simplero|   0 | 749 |  77 |  77 |   0 |  0 |   0 |   0 |      --      | 7.372906e+00 |    Inf | unknown
r 0.1s|     1 |     0 |  1557 |     - |simplero|   0 | 760 |  77 |  77 |   0 |  0 |   0 |   0 |      --      | 6.784690e+00 |    Inf | unknown
r 0.1s|     1 |     0 |  1567 |     - |simplero|   0 | 760 |  77 |  77 |   0 |  0 |   0 |   0 |      --      | 6.763553e+00 |    Inf | unknown
r 0.1s|     1 |     0 |  1601 |     - |simplero|   0 | 771 |  77 |  77 |   0 |  0 |   0 |   0 |      --      | 6.179421e+00 |    Inf | unknown
r 0.1s|     1 |     0 |  1610 |     - |simplero|   0 | 771 |  77 |  77 |   0 |  0 |   0 |   0 |      --      | 6.156183e+00 |    Inf | unknown
r 0.1s|     1 |     0 |  1615 |     - |simplero|   0 | 771 |  77 |  77 |   0 |  0 |   0 |   0 |      --      | 6.147325e+00 |    Inf | unknown
r 0.1s|     1 |     0 |  1665 |     - |simplero|   0 | 782 |  77 |  77 |   0 |  0 |   0 |   0 |      --      | 5.378431e+00 |    Inf | unknown
r 0.1s|     1 |     0 |  1678 |     - |simplero|   0 | 782 |  77 |  77 |   0 |  0 |   0 |   0 |      --      | 5.344228e+00 |    Inf | unknown
r 0.1s|     1 |     0 |  1681 |     - |simplero|   0 | 782 |  77 |  77 |   0 |  0 |   0 |   0 |      --      | 5.342053e+00 |    Inf | unknown
r 0.1s|     1 |     0 |  1710 |     - |simplero|   0 | 793 |  77 |  77 |   0 |  0 |   0 |   0 |      --      | 5.123917e+00 |    Inf | unknown
 time | node  | left  |LP iter|LP it/n|mem/heur|mdpt |vars |cons |rows |cuts |sepa|confs|strbr|  dualbound   | primalbound  |  gap   | compl. 
r 0.1s|     1 |     0 |  1733 |     - |simplero|   0 | 793 |  77 |  77 |   0 |  0 |   0 |   0 |      --      | 4.973947e+00 |    Inf | unknown
r 0.1s|     1 |     0 |  1765 |     - |simplero|   0 | 804 |  77 |  77 |   0 |  0 |   0 |   0 |      --      | 4.654030e+00 |    Inf | unknown
r 0.1s|     1 |     0 |  1768 |     - |simplero|   0 | 804 |  77 |  77 |   0 |  0 |   0 |   0 |      --      | 4.643567e+00 |    Inf | unknown
r 0.1s|     1 |     0 |  1799 |     - |simplero|   0 | 815 |  77 |  77 |   0 |  0 |   0 |   0 |      --      | 4.245190e+00 |    Inf | unknown
r 0.1s|     1 |     0 |  1837 |     - |simplero|   0 | 826 |  77 |  77 |   0 |  0 |   0 |   0 |      --      | 3.874101e+00 |    Inf | unknown
r 0.1s|     1 |     0 |  1875 |     - |simplero|   0 | 837 |  77 |  77 |   0 |  0 |   0 |   0 |      --      | 3.635723e+00 |    Inf | unknown
  0.1s|     1 |     0 |  1900 |     - |  4096k |   0 | 848 |  77 |  77 |   0 |  0 |   0 |   0 |      --      | 3.635723e+00 |    Inf | unknown
r 0.1s|     1 |     0 |  1900 |     - |simplero|   0 | 848 |  77 |  77 |   0 |  0 |   0 |   0 |      --      | 3.526316e+00 |    Inf | unknown
r 0.1s|     1 |     0 |  1943 |     - |simplero|   0 | 857 |  77 |  77 |   0 |  0 |   0 |   0 |      --      | 3.282353e+00 |    Inf | unknown
r 0.1s|     1 |     0 |  1965 |     - |simplero|   0 | 865 |  77 |  77 |   0 |  0 |   0 |   0 |      --      | 3.230571e+00 |    Inf | unknown
r 0.1s|     1 |     0 |  1986 |     - |simplero|   0 | 872 |  77 |  77 |   0 |  0 |   0 |   0 |      --      | 3.135605e+00 |    Inf | unknown
r 0.1s|     1 |     0 |  2000 |     - |simplero|   0 | 877 |  77 |  77 |   0 |  0 |   0 |   0 |      --      | 3.118375e+00 |    Inf | unknown
r 0.1s|     1 |     0 |  2015 |     - |simplero|   0 | 884 |  77 |  77 |   0 |  0 |   0 |   0 |      --      | 3.109827e+00 |    Inf | unknown
r 0.1s|     1 |     0 |  2029 |     - |simplero|   0 | 890 |  77 |  77 |   0 |  0 |   0 |   0 |      --      | 3.101322e+00 |    Inf | unknown
r 0.1s|     1 |     0 |  2040 |     - |simplero|   0 | 892 |  77 |  77 |   0 |  0 |   0 |   0 |      --      | 3.100000e+00 |    Inf | unknown
 time | node  | left  |LP iter|LP it/n|mem/heur|mdpt |vars |cons |rows |cuts |sepa|confs|strbr|  dualbound   | primalbound  |  gap   | compl. 
  0.1s|     1 |     0 |  2044 |     - |  4183k |   0 | 894 |  77 |  77 |   0 |  0 |   0 |   0 | 3.100000e+00 | 3.100000e+00 |   0.00%| unknown
  0.1s|     1 |     0 |  2044 |     - |  4183k |   0 | 894 |  77 |  77 |   0 |  0 |   0 |   0 | 3.100000e+00 | 3.100000e+00 |   0.00%| unknown

SCIP Status        : problem is solved [optimal solution found]
Solving Time (sec) : 0.10
Solving Nodes      : 1
Primal Bound       : +3.10000000000000e+00 (43 solutions)
Dual Bound         : +3.10000000000000e+00
Gap                : 0.00 %

written transformed problem to file <results_rootrelaxation/bin012_060_016.srr.lp>
written transformed problem to file <results_rootrelaxation/bin012_060_016.srr.cip>


SCIP version 8.0.3.5 [precision: 8 byte] [memory: block] [mode: optimized] [LP solver: Soplex 6.0.1.3] [GitHash: 438792519e]
Copyright (c) 2002-2023 Zuse Institute Berlin (ZIB)

External libraries: 
  Readline 8.1         GNU library for command line editing (gnu.org/s/readline)
  Soplex 6.0.1.3       Linear Programming Solver developed at Zuse Institute Berlin (soplex.zib.de) [GitHash: 713be0fe]
  CppAD 20180000.0     Algorithmic Differentiation of C++ algorithms developed by B. Bell (github.com/coin-or/CppAD)
  ZLIB 1.2.11          General purpose compression library by J. Gailly and M. Adler (zlib.net)
  bliss 0.77           Computing Graph Automorphism Groups by T. Junttila and P. Kaski (www.tcs.hut.fi/Software/bliss/)

user parameter file <scip.set> not found - using default parameters

srr/relaxation = TRUE

read problem <instances/bin012_060_016.srr>
============

Original problem: 
original problem has 0 variables (0 bin, 0 int, 0 impl, 0 cont) and 77 constraints

presolving:
presolving (1 rounds: 1 fast, 1 medium, 1 exhaustive):
 0 deleted vars, 0 deleted constraints, 0 added constraints, 0 tightened bounds, 0 added holes, 0 changed sides, 0 changed coefficients
 0 implications, 0 cliques
presolved problem has 0 variables (0 bin, 0 int, 0 impl, 0 cont) and 77 constraints
     77 constraints of type <linear>
Presolving Time: 0.00

 time | node  | left  |LP iter|LP it/n|mem/heur|mdpt |vars |cons |rows |cuts |sepa|confs|strbr|  dualbound   | primalbound  |  gap   | compl. 
  0.0s|     1 |     0 |     1 |     - |   710k |   0 |   1 |  77 |  77 |   0 |  0 |   0 |   0 |      --      |      --      |    Inf | unknown
r 0.0s|     1 |     0 |  1047 |     - |simplero|   0 | 650 |  77 |  77 |   0 |  0 |   0 |   0 |      --      | 2.062046e+01 |    Inf | unknown
r 0.0s|     1 |     0 |  1078 |     - |simplero|   0 | 661 |  77 |  77 |   0 |  0 |   0 |   0 |      --      | 1.977818e+01 |    Inf | unknown
r 0.1s|     1 |     0 |  1120 |     - |simplero|   0 | 672 |  77 |  77 |   0 |  0 |   0 |   0 |      --      | 1.817253e+01 |    Inf | unknown
r 0.1s|     1 |     0 |  1184 |     - |simplero|   0 | 683 |  77 |  77 |   0 |  0 |   0 |   0 |      --      | 1.535137e+01 |    Inf | unknown
r 0.1s|     1 |     0 |  1223 |     - |simplero|   0 | 694 |  77 |  77 |   0 |  0 |   0 |   0 |      --      | 1.420026e+01 |    Inf | unknown
r 0.1s|     1 |     0 |  1246 |     - |simplero|   0 | 694 |  77 |  77 |   0 |  0 |   0 |   0 |      --      | 1.390957e+01 |    Inf | unknown
r 0.1s|     1 |     0 |  1257 |     - |simplero|   0 | 694 |  77 |  77 |   0 |  0 |   0 |   0 |      --      | 1.389921e+01 |    Inf | unknown
r 0.1s|     1 |     0 |  1302 |     - |simplero|   0 | 705 |  77 |  77 |   0 |  0 |   0 |   0 |      --      | 1.271920e+01 |    Inf | unknown
r 0.1s|     1 |     0 |  1309 |     - |simplero|   0 | 705 |  77 |  77 |   0 |  0 |   0 |   0 |      --      | 1.267176e+01 |    Inf | unknown
r 0.1s|     1 |     0 |  1350 |     - |simplero|   0 | 716 |  77 |  77 |   0 |  0 |   0 |   0 |      --      | 1.130931e+01 |    Inf | unknown
r 0.1s|     1 |     0 |  1396 |     - |simplero|   0 | 727 |  77 |  77 |   0 |  0 |   0 |   0 |      --      | 9.834733e+00 |    Inf | unknown
r 0.1s|     1 |     0 |  1412 |     - |simplero|   0 | 727 |  77 |  77 |   0 |  0 |   0 |   0 |      --      | 9.459989e+00 |    Inf | unknown
r 0.1s|     1 |     0 |  1416 |     - |simplero|   0 | 727 |  77 |  77 |   0 |  0 |   0 |   0 |      --      | 9.453879e+00 |    Inf | unknown
r 0.1s|     1 |     0 |  1456 |     - |simplero|   0 | 738 |  77 |  77 |   0 |  0 |   0 |   0 |      --      | 8.582814e+00 |    Inf | unknown
 time | node  | left  |LP iter|LP it/n|mem/heur|mdpt |vars |cons |rows |cuts |sepa|confs|strbr|  dualbound   | primalbound  |  gap   | compl. 
r 0.1s|     1 |     0 |  1470 |     - |simplero|   0 | 738 |  77 |  77 |   0 |  0 |   0 |   0 |      --      | 8.505616e+00 |    Inf | unknown
r 0.1s|     1 |     0 |  1473 |     - |simplero|   0 | 738 |  77 |  77 |   0 |  0 |   0 |   0 |      --      | 8.500604e+00 |    Inf | unknown
r 0.1s|     1 |     0 |  1492 |     - |simplero|   0 | 749 |  77 |  77 |   0 |  0 |   0 |   0 |      --      | 7.684346e+00 |    Inf | unknown
r 0.1s|     1 |     0 |  1518 |     - |simplero|   0 | 749 |  77 |  77 |   0 |  0 |   0 |   0 |      --      | 7.433250e+00 |    Inf | unknown
r 0.1s|     1 |     0 |  1526 |     - |simplero|   0 | 749 |  77 |  77 |   0 |  0 |   0 |   0 |      --      | 7.373246e+00 |    Inf | unknown
r 0.1s|     1 |     0 |  1528 |     - |simplero|   0 | 749 |  77 |  77 |   0 |  0 |   0 |   0 |      --      | 7.372906e+00 |    Inf | unknown
r 0.1s|     1 |     0 |  1557 |     - |simplero|   0 | 760 |  77 |  77 |   0 |  0 |   0 |   0 |      --      | 6.784690e+00 |    Inf | unknown
r 0.1s|     1 |     0 |  1567 |     - |simplero|   0 | 760 |  77 |  77 |   0 |  0 |   0 |   0 |      --      | 6.763553e+00 |    Inf | unknown
r 0.1s|     1 |     0 |  1601 |     - |simplero|   0 | 771 |  77 |  77 |   0 |  0 |   0 |   0 |      --      | 6.179421e+00 |    Inf | unknown
r 0.1s|     1 |     0 |  1610 |     - |simplero|   0 | 771 |  77 |  77 |   0 |  0 |   0 |   0 |      --      | 6.156183e+00 |    Inf | unknown
r 0.1s|     1 |     0 |  1615 |     - |simplero|   0 | 771 |  77 |  77 |   0 |  0 |   0 |   0 |      --      | 6.147325e+00 |    Inf | unknown
r 0.1s|     1 |     0 |  1665 |     - |simplero|   0 | 782 |  77 |  77 |   0 |  0 |   0 |   0 |      --      | 5.378431e+00 |    Inf | unknown
r 0.1s|     1 |     0 |  1678 |     - |simplero|   0 | 782 |  77 |  77 |   0 |  0 |   0 |   0 |      --      | 5.344228e+00 |    Inf | unknown
r 0.1s|     1 |     0 |  1681 |     - |simplero|   0 | 782 |  77 |  77 |   0 |  0 |   0 |   0 |      --      | 5.342053e+00 |    Inf | unknown
r 0.1s|     1 |     0 |  1710 |     - |simplero|   0 | 793 |  77 |  77 |   0 |  0 |   0 |   0 |      --      | 5.123917e+00 |    Inf | unknown
 time | node  | left  |LP iter|LP it/n|mem/heur|mdpt |vars |cons |rows |cuts |sepa|confs|strbr|  dualbound   | primalbound  |  gap   | compl. 
r 0.1s|     1 |     0 |  1733 |     - |simplero|   0 | 793 |  77 |  77 |   0 |  0 |   0 |   0 |      --      | 4.973947e+00 |    Inf | unknown
r 0.1s|     1 |     0 |  1765 |     - |simplero|   0 | 804 |  77 |  77 |   0 |  0 |   0 |   0 |      --      | 4.654030e+00 |    Inf | unknown
r 0.1s|     1 |     0 |  1768 |     - |simplero|   0 | 804 |  77 |  77 |   0 |  0 |   0 |   0 |      --      | 4.643567e+00 |    Inf | unknown
r 0.1s|     1 |     0 |  1799 |     - |simplero|   0 | 815 |  77 |  77 |   0 |  0 |   0 |   0 |      --      | 4.245190e+00 |    Inf | unknown
r 0.1s|     1 |     0 |  1837 |     - |simplero|   0 | 826 |  77 |  77 |   0 |  0 |   0 |   0 |      --      | 3.874101e+00 |    Inf | unknown
r 0.1s|     1 |     0 |  1875 |     - |simplero|   0 | 837 |  77 |  77 |   0 |  0 |   0 |   0 |      --      | 3.635723e+00 |    Inf | unknown
  0.1s|     1 |     0 |  1900 |     - |  4096k |   0 | 848 |  77 |  77 |   0 |  0 |   0 |   0 |      --      | 3.635723e+00 |    Inf | unknown
r 0.1s|     1 |     0 |  1900 |     - |simplero|   0 | 848 |  77 |  77 |   0 |  0 |   0 |   0 |      --      | 3.526316e+00 |    Inf | unknown
r 0.1s|     1 |     0 |  1943 |     - |simplero|   0 | 857 |  77 |  77 |   0 |  0 |   0 |   0 |      --      | 3.282353e+00 |    Inf | unknown
r 0.1s|     1 |     0 |  1965 |     - |simplero|   0 | 865 |  77 |  77 |   0 |  0 |   0 |   0 |      --      | 3.230571e+00 |    Inf | unknown
r 0.1s|     1 |     0 |  1986 |     - |simplero|   0 | 872 |  77 |  77 |   0 |  0 |   0 |   0 |      --      | 3.135605e+00 |    Inf | unknown
r 0.1s|     1 |     0 |  2000 |     - |simplero|   0 | 877 |  77 |  77 |   0 |  0 |   0 |   0 |      --      | 3.118375e+00 |    Inf | unknown
r 0.1s|     1 |     0 |  2015 |     - |simplero|   0 | 884 |  77 |  77 |   0 |  0 |   0 |   0 |      --      | 3.109827e+00 |    Inf | unknown
r 0.1s|     1 |     0 |  2029 |     - |simplero|   0 | 890 |  77 |  77 |   0 |  0 |   0 |   0 |      --      | 3.101322e+00 |    Inf | unknown
r 0.1s|     1 |     0 |  2040 |     - |simplero|   0 | 892 |  77 |  77 |   0 |  0 |   0 |   0 |      --      | 3.100000e+00 |    Inf | unknown
 time | node  | left  |LP iter|LP it/n|mem/heur|mdpt |vars |cons |rows |cuts |sepa|confs|strbr|  dualbound   | primalbound  |  gap   | compl. 
  0.1s|     1 |     0 |  2044 |     - |  4183k |   0 | 894 |  77 |  77 |   0 |  0 |   0 |   0 | 3.100000e+00 | 3.100000e+00 |   0.00%| unknown
  0.1s|     1 |     0 |  2044 |     - |  4183k |   0 | 894 |  77 |  77 |   0 |  0 |   0 |   0 | 3.100000e+00 | 3.100000e+00 |   0.00%| unknown

SCIP Status        : problem is solved [optimal solution found]
Solving Time (sec) : 0.10
Solving Nodes      : 1
Primal Bound       : +3.10000000000000e+00 (43 solutions)
Dual Bound         : +3.10000000000000e+00
Gap                : 0.00 %

written transformed problem to file <results_rootrelaxation/bin012_060_016.srr.lp>
written transformed problem to file <results_rootrelaxation/bin012_060_016.srr.cip>

written solution information to file <results_rootrelaxation/bin012_060_016.srr.sol>



